c Generated map
c Size: 13 * 13, weights in range: 1 to 10, walls: True, with ratio 0.2
c dim 1 of 3
c
p sp 169 201
c graph contains 169 nodes and 201 arcs
c
a 1 14 2
a 14 1 2
a 1 2 9
a 2 1 9
a 2 15 4
a 15 2 4
a 2 3 6
a 3 2 6
a 3 16 6
a 16 3 6
a 3 4 6
a 4 3 6
a 4 17 4
a 17 4 4
a 4 5 1
a 5 4 1
a 5 6 9
a 6 5 9
a 6 19 9
a 19 6 9
a 6 7 6
a 7 6 6
a 9 22 3
a 22 9 3
a 9 10 7
a 10 9 7
a 14 27 8
a 27 14 8
a 14 15 1
a 15 14 1
a 15 28 2
a 28 15 2
a 15 16 6
a 16 15 6
a 16 29 4
a 29 16 4
a 16 17 10
a 17 16 10
a 17 30 8
a 30 17 8
a 19 32 4
a 32 19 4
a 21 34 3
a 34 21 3
a 21 22 9
a 22 21 9
a 22 35 9
a 35 22 9
a 24 37 3
a 37 24 3
a 24 25 1
a 25 24 1
a 25 38 2
a 38 25 2
a 25 26 8
a 26 25 8
a 26 39 8
a 39 26 8
a 27 40 9
a 40 27 9
a 27 28 2
a 28 27 2
a 28 29 8
a 29 28 8
a 29 42 9
a 42 29 9
a 29 30 1
a 30 29 1
a 30 43 3
a 43 30 3
a 30 31 5
a 31 30 5
a 31 32 8
a 32 31 8
a 32 33 6
a 33 32 6
a 33 46 5
a 46 33 5
a 33 34 7
a 34 33 7
a 34 47 8
a 47 34 8
a 34 35 5
a 35 34 5
a 35 48 10
a 48 35 10
a 35 36 7
a 36 35 7
a 36 49 7
a 49 36 7
a 36 37 9
a 37 36 9
a 37 50 2
a 50 37 2
a 37 38 6
a 38 37 6
a 38 51 9
a 51 38 9
a 38 39 1
a 39 38 1
a 39 52 5
a 52 39 5
a 40 53 8
a 53 40 8
a 42 55 7
a 55 42 7
a 42 43 5
a 43 42 5
a 43 56 6
a 56 43 6
a 46 59 8
a 59 46 8
a 46 47 4
a 47 46 4
a 47 60 5
a 60 47 5
a 47 48 3
a 48 47 3
a 48 61 2
a 61 48 2
a 48 49 7
a 49 48 7
a 49 50 4
a 50 49 4
a 50 63 5
a 63 50 5
a 50 51 4
a 51 50 4
a 51 64 6
a 64 51 6
a 51 52 1
a 52 51 1
a 53 66 10
a 66 53 10
a 55 68 7
a 68 55 7
a 55 56 2
a 56 55 2
a 56 69 5
a 69 56 5
a 56 57 3
a 57 56 3
a 59 72 5
a 72 59 5
a 59 60 10
a 60 59 10
a 60 61 10
a 61 60 10
a 61 74 5
a 74 61 5
a 63 76 10
a 76 63 10
a 63 64 6
a 64 63 6
a 64 77 8
a 77 64 8
a 66 79 1
a 79 66 1
a 66 67 4
a 67 66 4
a 67 68 5
a 68 67 5
a 68 81 3
a 81 68 3
a 68 69 2
a 69 68 2
a 71 84 9
a 84 71 9
a 71 72 3
a 72 71 3
a 72 85 3
a 85 72 3
a 74 87 2
a 87 74 2
a 74 75 10
a 75 74 10
a 75 88 5
a 88 75 5
a 75 76 5
a 76 75 5
a 76 89 1
a 89 76 1
a 76 77 5
a 77 76 5
a 77 90 4
a 90 77 4
a 79 92 9
a 92 79 9
a 81 94 5
a 94 81 5
a 83 96 5
a 96 83 5
a 83 84 9
a 84 83 9
a 84 97 6
a 97 84 6
a 84 85 8
a 85 84 8
a 85 98 7
a 98 85 7
a 85 86 6
a 86 85 6
a 86 99 7
a 99 86 7
a 86 87 10
a 87 86 10
a 87 100 6
a 100 87 6
a 87 88 2
a 88 87 2
a 88 101 5
a 101 88 5
a 88 89 5
a 89 88 5
a 89 102 5
a 102 89 5
a 89 90 7
a 90 89 7
a 90 103 9
a 103 90 9
a 90 91 4
a 91 90 4
a 91 104 7
a 104 91 7
a 92 93 6
a 93 92 6
a 93 106 7
a 106 93 7
a 93 94 7
a 94 93 7
a 94 107 2
a 107 94 2
a 94 95 6
a 95 94 6
a 95 108 3
a 108 95 3
a 95 96 7
a 96 95 7
a 96 109 3
a 109 96 3
a 96 97 6
a 97 96 6
a 97 110 9
a 110 97 9
a 97 98 3
a 98 97 3
a 98 99 4
a 99 98 4
a 99 112 4
a 112 99 4
a 99 100 9
a 100 99 9
a 100 113 8
a 113 100 8
a 100 101 10
a 101 100 10
a 101 114 3
a 114 101 3
a 101 102 7
a 102 101 7
a 102 115 6
a 115 102 6
a 102 103 8
a 103 102 8
a 103 116 2
a 116 103 2
a 103 104 7
a 104 103 7
a 104 117 1
a 117 104 1
a 106 119 3
a 119 106 3
a 106 107 6
a 107 106 6
a 107 120 1
a 120 107 1
a 107 108 7
a 108 107 7
a 108 121 1
a 121 108 1
a 108 109 7
a 109 108 7
a 109 122 2
a 122 109 2
a 109 110 6
a 110 109 6
a 110 123 9
a 123 110 9
a 112 125 3
a 125 112 3
a 112 113 10
a 113 112 10
a 113 126 8
a 126 113 8
a 113 114 5
a 114 113 5
a 114 127 4
a 127 114 4
a 114 115 10
a 115 114 10
a 115 128 8
a 128 115 8
a 115 116 10
a 116 115 10
a 116 129 5
a 129 116 5
a 116 117 6
a 117 116 6
a 117 130 6
a 130 117 6
a 119 132 1
a 132 119 1
a 119 120 8
a 120 119 8
a 120 133 1
a 133 120 1
a 120 121 5
a 121 120 5
a 121 134 7
a 134 121 7
a 121 122 7
a 122 121 7
a 122 123 4
a 123 122 4
a 123 124 9
a 124 123 9
a 124 137 10
a 137 124 10
a 124 125 2
a 125 124 2
a 125 138 4
a 138 125 4
a 125 126 4
a 126 125 4
a 126 127 2
a 127 126 2
a 127 140 5
a 140 127 5
a 127 128 5
a 128 127 5
a 128 141 4
a 141 128 4
a 128 129 3
a 129 128 3
a 129 130 7
a 130 129 7
a 130 143 3
a 143 130 3
a 131 132 5
a 132 131 5
a 132 133 4
a 133 132 4
a 133 134 5
a 134 133 5
a 134 147 1
a 147 134 1
a 137 138 2
a 138 137 2
a 138 151 3
a 151 138 3
a 140 153 1
a 153 140 1
a 140 141 7
a 141 140 7
a 143 156 3
a 156 143 3
a 147 160 7
a 160 147 7
a 149 162 7
a 162 149 7
a 151 152 4
a 152 151 4
a 152 165 8
a 165 152 8
a 152 153 10
a 153 152 10
a 153 166 8
a 166 153 8
a 155 168 6
a 168 155 6
a 155 156 8
a 156 155 8
a 156 169 8
a 169 156 8
a 158 159 3
a 159 158 3
a 159 160 1
a 160 159 1
a 160 161 8
a 161 160 8
a 161 162 3
a 162 161 3
a 162 163 10
a 163 162 10
a 165 166 10
a 166 165 10
a 166 167 1
a 167 166 1
a 167 168 6
a 168 167 6
a 168 169 5
a 169 168 5
